c nIsolatedPIs 0
c maxPI 32
p cnf 100 205
c gate 33 -10 26 0
-10 -33 0
26 -33 0
10 -26 33 0
c gate 34 -9 -25 0
-9 -34 0
-25 -34 0
9 25 34 0
c gate 35 9 25 0
9 -35 0
25 -35 0
-9 -25 35 0
c gate 36 -34 -35 0
-34 -36 0
-35 -36 0
34 35 36 0
c gate 37 -2 18 0
-2 -37 0
18 -37 0
2 -18 37 0
c gate 38 -1 17 0
-1 -38 0
17 -38 0
1 -17 38 0
c gate 39 -37 -38 0
-37 -39 0
-38 -39 0
37 38 39 0
c gate 40 2 -18 0
2 -40 0
-18 -40 0
-2 18 40 0
c gate 41 3 -19 0
3 -41 0
-19 -41 0
-3 19 41 0
c gate 42 -40 -41 0
-40 -42 0
-41 -42 0
40 41 42 0
c gate 43 -39 42 0
-39 -43 0
42 -43 0
39 -42 43 0
c gate 44 -4 20 0
-4 -44 0
20 -44 0
4 -20 44 0
c gate 45 -3 19 0
-3 -45 0
19 -45 0
3 -19 45 0
c gate 46 -44 -45 0
-44 -46 0
-45 -46 0
44 45 46 0
c gate 47 -43 46 0
-43 -47 0
46 -47 0
43 -46 47 0
c gate 48 5 -21 0
5 -48 0
-21 -48 0
-5 21 48 0
c gate 49 4 -20 0
4 -49 0
-20 -49 0
-4 20 49 0
c gate 50 -48 -49 0
-48 -50 0
-49 -50 0
48 49 50 0
c gate 51 -47 50 0
-47 -51 0
50 -51 0
47 -50 51 0
c gate 52 -6 -22 0
-6 -52 0
-22 -52 0
6 22 52 0
c gate 53 6 22 0
6 -53 0
22 -53 0
-6 -22 53 0
c gate 54 -52 -53 0
-52 -54 0
-53 -54 0
52 53 54 0
c gate 55 -5 21 0
-5 -55 0
21 -55 0
5 -21 55 0
c gate 56 -54 -55 0
-54 -56 0
-55 -56 0
54 55 56 0
c gate 57 -51 56 0
-51 -57 0
56 -57 0
51 -56 57 0
c gate 58 7 -23 0
7 -58 0
-23 -58 0
-7 23 58 0
c gate 59 6 -22 0
6 -59 0
-22 -59 0
-6 22 59 0
c gate 60 -58 -59 0
-58 -60 0
-59 -60 0
58 59 60 0
c gate 61 -57 60 0
-57 -61 0
60 -61 0
57 -60 61 0
c gate 62 -7 23 0
-7 -62 0
23 -62 0
7 -23 62 0
c gate 63 -8 -24 0
-8 -63 0
-24 -63 0
8 24 63 0
c gate 64 8 24 0
8 -64 0
24 -64 0
-8 -24 64 0
c gate 65 -63 -64 0
-63 -65 0
-64 -65 0
63 64 65 0
c gate 66 -62 -65 0
-62 -66 0
-65 -66 0
62 65 66 0
c gate 67 -61 66 0
-61 -67 0
66 -67 0
61 -66 67 0
c gate 68 -36 67 0
-36 -68 0
67 -68 0
36 -67 68 0
c gate 69 8 -24 0
8 -69 0
-24 -69 0
-8 24 69 0
c gate 70 -36 69 0
-36 -70 0
69 -70 0
36 -69 70 0
c gate 71 9 -25 0
9 -71 0
-25 -71 0
-9 25 71 0
c gate 72 -70 -71 0
-70 -72 0
-71 -72 0
70 71 72 0
c gate 73 -68 72 0
-68 -73 0
72 -73 0
68 -72 73 0
c gate 74 -33 -73 0
-33 -74 0
-73 -74 0
33 73 74 0
c gate 75 -11 -27 0
-11 -75 0
-27 -75 0
11 27 75 0
c gate 76 11 27 0
11 -76 0
27 -76 0
-11 -27 76 0
c gate 77 -75 -76 0
-75 -77 0
-76 -77 0
75 76 77 0
c gate 78 10 -26 0
10 -78 0
-26 -78 0
-10 26 78 0
c gate 79 -77 -78 0
-77 -79 0
-78 -79 0
77 78 79 0
c gate 80 -74 79 0
-74 -80 0
79 -80 0
74 -79 80 0
c gate 81 -12 -28 0
-12 -81 0
-28 -81 0
12 28 81 0
c gate 82 12 28 0
12 -82 0
28 -82 0
-12 -28 82 0
c gate 83 -81 -82 0
-81 -83 0
-82 -83 0
81 82 83 0
c gate 84 -13 -29 0
-13 -84 0
-29 -84 0
13 29 84 0
c gate 85 13 29 0
13 -85 0
29 -85 0
-13 -29 85 0
c gate 86 -84 -85 0
-84 -86 0
-85 -86 0
84 85 86 0
c gate 87 -83 -86 0
-83 -87 0
-86 -87 0
83 86 87 0
c gate 88 -16 -32 0
-16 -88 0
-32 -88 0
16 32 88 0
c gate 89 16 32 0
16 -89 0
32 -89 0
-16 -32 89 0
c gate 90 -88 -89 0
-88 -90 0
-89 -90 0
88 89 90 0
c gate 91 -14 -30 0
-14 -91 0
-30 -91 0
14 30 91 0
c gate 92 14 30 0
14 -92 0
30 -92 0
-14 -30 92 0
c gate 93 -91 -92 0
-91 -93 0
-92 -93 0
91 92 93 0
c gate 94 -15 -31 0
-15 -94 0
-31 -94 0
15 31 94 0
c gate 95 15 31 0
15 -95 0
31 -95 0
-15 -31 95 0
c gate 96 -94 -95 0
-94 -96 0
-95 -96 0
94 95 96 0
c gate 97 -93 -96 0
-93 -97 0
-96 -97 0
93 96 97 0
c gate 98 -90 97 0
-90 -98 0
97 -98 0
90 -97 98 0
c gate 99 87 98 0
87 -99 0
98 -99 0
-87 -98 99 0
c gate 100 80 99 0
80 -100 0
99 -100 0
-80 -99 100 0
c PO
100 0
